001 000 000 000 000 000 000 000 000 000 001 003 002 002 003 003 005 003 002 001 000 000 000 000 000 000 000 000 -99 -99 -99
000 000 000 000 000 000 000 000 000 000 002 004 003 003 004 005 003 004 001 000 000 000 000 000 000 000 000 000 -99 -99 -99
000 000 000 000 000 000 000 000 000 000 003 006 004 003 003 003 004 004 002 000 000 000 000 -99 000 000 000 000 -99 -99 -99
000 000 000 000 000 000 000 000 000 000 003 004 005 004 002 002 002 001 001 000 000 000 000 -99 000 000 -99 -99 -99 -99 000
000 000 000 000 000 000 000 000 000 000 001 002 004 005 003 002 001 001 001 000 000 000 000 -99 -99 -99 -99 -99 -99 -99 000
000 000 000 000 000 000 001 002 002 001 001 001 003 005 005 002 001 001 000 000 000 000 000 000 -99 -99 -99 -99 -99 -99 000
000 000 000 000 000 000 001 001 002 002 001 001 001 003 002 002 001 000 000 000 000 000 000 000 000 -99 -99 -99 -99 -99 -99
000 000 000 000 000 000 000 003 004 002 001 000 001 001 002 002 001 000 000 000 000 000 000 000 000 -99 -99 -99 -99 -99 -99
000 000 000 000 000 000 000 002 004 003 002 002 001 000 001 001 001 000 000 000 000 -99 -99 000 000 -99 -99 -99 -99 -99 -99
000 000 000 000 000 000 000 002 004 004 003 004 001 001 001 001 001 001 000 000 000 000 -99 -99 000 000 -99 -99 -99 000 000
000 000 000 000 000 000 001 002 005 007 011 007 002 001 001 001 001 002 000 000 000 000 -99 -99 000 -99 -99 -99 000 000 000
000 000 000 000 000 000 000 001 002 004 009 008 004 002 002 003 002 001 000 000 000 000 -99 000 000 -99 000 000 000 000 000
000 000 000 000 000 000 001 002 001 002 007 005 003 003 005 005 004 002 001 000 000 000 -99 000 000 000 000 000 000 000 000
000 000 000 000 001 001 002 002 001 002 004 004 003 002 007 007 005 004 002 001 001 000 -99 000 000 000 000 000 000 000 001
000 000 000 001 002 001 003 002 001 001 004 002 002 001 002 003 004 004 003 003 002 000 -99 000 000 000 000 000 000 000 000
000 000 000 001 003 001 001 001 000 001 001 001 000 000 001 001 002 002 003 003 002 000 000 000 000 000 000 000 000 000 000
000 000 000 000 002 001 001 001 000 000 000 000 001 000 002 001 001 001 003 008 004 002 000 000 000 000 000 000 000 000 000
000 000 000 000 001 001 001 001 000 000 000 000 001 002 004 002 001 000 003 010 002 002 001 000 000 000 000 000 000 000 000
000 000 000 000 001 001 001 000 000 000 000 000 001 002 005 002 001 000 002 004 001 001 001 000 000 000 000 -99 -99 001 000
000 000 000 000 000 000 001 000 000 000 000 000 001 002 003 002 003 001 000 000 001 001 001 001 -99 -99 -99 -99 -99 001 000
000 000 000 000 000 000 000 000 000 000 000 000 000 001 002 003 003 001 000 000 001 001 001 -99 -99 -99 -99 -99 -99 -99 000
000 000 000 000 000 000 000 000 000 000 -99 000 001 001 002 002 001 001 001 001 001 001 001 -99 -99 -99 -99 -99 -99 -99 -99
000 000 000 000 000 000 000 000 000 000 -99 000 001 001 001 002 001 001 001 001 001 001 002 -99 -99 -99 -99 -99 -99 -99 -99
000 000 000 000 000 000 000 000 000 000 -99 000 000 000 001 002 001 002 001 001 002 001 002 -99 -99 -99 -99 -99 -99 -99 -99
000 000 000 000 000 000 000 000 000 000 -99 000 000 000 000 001 000 001 001 001 001 001 001 -99 -99 -99 -99 -99 -99 -99 -99
000 001 000 000 000 000 000 000 000 000 -99 000 000 000 000 000 000 000 000 000 000 001 001 -99 -99 -99 -99 -99 -99 -99 000
000 000 000 000 000 000 000 000 000 000 000 -99 000 000 000 000 000 000 000 000 000 000 000 -99 -99 -99 -99 -99 -99 -99 000
000 000 000 000 000 000 000 000 000 000 000 000 000 000 000 000 000 000 000 000 000 000 000 -99 -99 -99 -99 -99 001 000 000
000 000 000 000 000 000 000 000 000 000 000 000 000 000 000 000 000 000 000 000 000 000 -99 -99 -99 -99 -99 -99 002 001 000
000 000 000 000 000 000 000 000 000 000 000 000 001 000 000 000 000 000 000 000 000 000 -99 -99 -99 -99 -99 003 002 002 000
001 001 000 000 000 000 -99 000 000 000 000 000 000 000 000 -99 000 000 000 000 -99 000 -99 000 -99 -99 001 003 003 003 000
001 000 000 000 000 000 -99 000 000 000 000 000 000 000 000 -99 000 000 -99 -99 -99 000 000 000 000 000 001 003 004 004 002
000 000 000 000 000 000 000 000 000 000 000 -99 000 000 000 -99 000 000 -99 -99 -99 000 000 -99 000 000 002 007 006 004 001
000 000 000 000 000 000 000 000 000 000 -99 -99 -99 000 000 -99 000 000 -99 -99 000 000 000 -99 000 001 002 005 006 005 002
000 000 000 000 000 000 000 000 000 000 -99 -99 -99 000 000 000 000 000 -99 -99 000 000 -99 000 000 001 002 003 006 005 002
000 000 000 000 000 000 000 000 000 000 000 000 000 000 000 000 000 000 000 000 000 000 000 -99 000 001 002 001 002 002 002
000 000 000 000 000 000 000 000 000 000 000 000 000 000 000 000 000 000 000 000 000 000 000 000 000 001 001 000 001 001 000
000 000 000 000 000 000 000 000 000 000 000 000 000 000 000 000 000 000 000 000 000 000 000 000 000 000 003 001 000 000 000
000 000 000 000 000 000 000 000 000 000 000 000 001 000 000 000 000 002 002 002 002 000 001 001 000 001 006 004 003 002 001
000 000 000 000 000 000 000 000 000 000 000 001 001 000 000 000 000 004 008 015 017 010 003 002 002 004 013 010 005 004 001
000 000 000 000 000 000 000 000 000 000 000 001 001 000 000 000 000 003 020 016 021 012 005 006 006 009 016 019 008 005 000
000 000 000 000 000 000 000 000 000 000 000 001 000 000 000 000 001 001 016 018 016 010 006 013 008 013 012 012 005 004 001
000 000 001 002 001 001 000 000 000 000 000 000 000 000 000 000 001 001 009 015 012 007 009 015 012 011 007 008 003 001 001
000 000 001 004 003 002 000 000 000 000 000 000 000 000 000 000 000 001 005 008 010 007 009 020 008 009 006 004 002 001 000
000 000 001 003 004 002 001 000 000 000 000 000 000 000 000 000 000 000 005 016 008 009 008 009 005 008 005 002 001 001 000
000 000 001 002 001 001 002 001 000 001 000 000 000 000 000 000 000 000 018 033 010 004 006 005 006 003 003 001 001 000 000
000 000 000 001 004 002 000 000 000 001 001 000 000 000 000 000 000 001 004 009 023 012 004 005 003 002 001 001 001 000 000
000 000 000 003 004 001 000 001 001 002 001 001 001 000 000 -99 000 000 001 002 005 007 004 002 002 002 001 000 000 000 000
000 000 000 001 002 000 001 002 002 003 002 001 000 000 000 -99 000 000 001 002 003 003 001 001 001 003 001 000 000 000 000
000 000 000 000 000 000 001 001 002 004 001 002 001 000 000 000 000 001 002 004 005 001 000 000 001 001 000 000 000 000 000
000 000 000 000 000 000 001 001 001 001 003 003 001 000 000 000 000 002 005 008 004 000 000 000 000 000 000 000 000 -99 -99
-99 -99 000 000 000 000 000 000 000 002 005 004 002 000 000 000 000 003 005 020 007 001 000 000 000 000 000 -99 -99 -99 -99
-99 -99 000 000 000 -99 000 000 000 002 005 004 001 000 000 000 000 003 005 013 004 001 000 -99 000 -99 -99 -99 -99 -99 -99
-99 -99 -99 -99 -99 000 000 000 001 002 002 004 001 000 -99 000 000 001 006 006 004 001 000 000 -99 -99 -99 -99 -99 -99 -99
-99 -99 -99 -99 000 000 000 001 003 002 001 001 000 000 -99 000 000 001 003 005 002 000 000 -99 -99 -99 -99 -99 -99 -99 -99
